(declare-fun y () Int)
(declare-fun x () Int)

(assert (
and (and (and (and (
>= (/ y (* 20 (* 52 93))) (* 63 18)
) (
> 100 (/ (* (/ 24 39) (/ y 27)) 69)
)) (and (
>= (/ 38 (* x (+ (- x (* x (/ x (+ x x)))) (- 54 x)))) y
) (
>= (/ x 35) (/ (* (* 71 (/ 46 80)) y) 76)
))) (and (and (
> 83 (/ y (/ (/ 25 (* 31 68)) 66))
) (
> y (/ (+ 13 x) (+ x 89))
)) (and (
< (/ x (* 7 (* x 45))) (* (/ (* 90 79) (/ 23 96)) y)
) (
< (* (/ 9 (/ 1 15)) (/ (/ y 63) (* 22 87))) (* 74 x)
)))) (and (and (and (
= (/ (/ y (/ 76 69)) 14) (+ x x)
) (
<= (/ (/ (/ y 35) 50) (/ 39 51)) x
)) (and (
>= (/ (/ y (/ 37 (* 81 32))) (/ 15 13)) (- x x)
) (
not (= (+ (- 43 82) (* (+ 46 34) (+ 18 (- 6 61)))) (/ y 67))
))) (and (and (
< (+ (* x (/ (+ x 65) 14)) (+ 56 (- (+ x x) x))) y
) (
<= (* (* x 43) (* (+ x x) 52)) (* (* (/ y 13) 18) (* 98 60))
)) (
> (/ x (* (+ 27 (/ x 23)) (* (/ 91 x) x))) (* 70 y)
)))
))